(set-logic QF_S)
(declare-fun var0 () String)
(declare-fun var1 () String)
(declare-fun var2 () String)
(declare-fun var3 () String)
(declare-fun var4 () String)
(declare-fun var5 () String)
(declare-fun var6 () String)
(declare-fun var7 () String)
(declare-fun var8 () String)
(declare-fun var9 () String)
(declare-fun var10 () String)
(declare-fun var11 () String)
(declare-fun var12 () String)
(declare-fun var13 () String)
(declare-fun var14 () String)
(declare-fun var15 () String)
(declare-fun var16 () String)
(declare-fun var17 () String)
(declare-fun var18 () String)
(declare-fun var19 () String)
(declare-fun var20 () String)
(declare-fun var21 () String)
(declare-fun var22 () String)
(declare-fun var23 () String)
(declare-fun var24 () String)
(declare-fun var25 () String)
(declare-fun var26 () String)
(declare-fun var27 () String)
(declare-fun var28 () String)
(declare-fun var29 () String)
(declare-fun var30 () String)
(declare-fun var31 () String)
(declare-fun var32 () String)
(declare-fun var33 () String)
(declare-fun var34 () String)
(declare-fun var35 () String)
(declare-fun var36 () String)
(declare-fun var37 () String)
(declare-fun var38 () String)
(declare-fun var39 () String)
(declare-fun var40 () String)
(declare-fun var41 () String)
(declare-fun var42 () String)
(declare-fun var43 () String)
(declare-fun var44 () String)
(declare-fun var45 () String)
(declare-fun var46 () String)
(declare-fun var47 () String)
(declare-fun var48 () String)
(declare-fun var49 () String)
(declare-fun var50 () String)
(declare-fun var51 () String)
(declare-fun var52 () String)
(declare-fun var53 () String)
(declare-fun var54 () String)
(declare-fun var55 () String)
(declare-fun var56 () String)
(declare-fun var57 () String)
(declare-fun var58 () String)
(declare-fun var59 () String)
(declare-fun var60 () String)
(assert (= var0 (Concat var1 var2)))
(assert (= var2 (Concat var3 var4)))
(assert (= var4 (Concat var5 var6)))
(assert (= var6 (Concat var7 var8)))
(assert (= var8 (Concat var9 var10)))
(assert (= var10 (Concat var11 var12)))
(assert (= var12 (Concat var13 var14)))
(assert (= var14 (Concat var15 var16)))
(assert (= var16 (Concat var17 var18)))
(assert (= var18 (Concat var19 var20)))
(assert (= var20 (Concat var21 var22)))
(assert (= var22 (Concat var23 var24)))
(assert (= var24 (Concat var25 var26)))
(assert (= var26 (Concat var27 var28)))
(assert (= var28 (Concat var29 var30)))
(assert (= var30 (Concat var31 var32)))
(assert (= var32 (Concat var33 var34)))
(assert (= var34 (Concat var35 var36)))
(assert (= var36 (Concat var37 var38)))
(assert (= var38 (Concat var39 var40)))
(assert (= var40 (Concat var41 var42)))
(assert (= var42 (Concat var43 var44)))
(assert (= var44 (Concat var45 var46)))
(assert (= var46 (Concat var47 var48)))
(assert (= var48 (Concat var49 var50)))
(assert (= var50 (Concat var51 var52)))
(assert (= var52 (Concat var53 var54)))
(assert (= var54 (Concat var55 var56)))
(assert (= var56 (Concat var57 var58)))
(assert (= var58 (Concat var59 var60)))
(assert (= var0 "solution"))
(assert (= "f" (CharAt var27 839)))
(assert (= "a" (CharAt var56 243)))
(assert (= "!" (CharAt var41 887)))
(assert (= "(" (CharAt var19 308)))
(assert (= "x" (CharAt var37 310)))
(assert (= "f" (CharAt var34 370)))
(assert (= "5" (CharAt var58 483)))
(assert (= "X" (CharAt var7 747)))
(assert (= "t" (CharAt var4 794)))
(assert (= "=" (CharAt var33 510)))
(assert (= "S" (CharAt var9 7)))
(assert (= "-" (CharAt var19 325)))
(assert (= "N" (CharAt var25 194)))
(assert (= "l" (CharAt var12 210)))
(assert (= "u" (CharAt var22 809)))
(assert (= "h" (CharAt var24 454)))
(assert (= "F" (CharAt var19 161)))
(assert (= "c" (CharAt var18 790)))
(assert (= "J" (CharAt var28 84)))
(assert (= "b" (CharAt var14 325)))
(assert (= "j" (CharAt var11 458)))
(assert (= "2" (CharAt var24 900)))
(assert (= "}" (CharAt var9 915)))
(assert (= "J" (CharAt var18 22)))
(assert (= "X" (CharAt var46 216)))
(assert (= "&" (CharAt var30 746)))
(assert (= "." (CharAt var37 811)))
(assert (= "S" (CharAt var23 100)))
(assert (= "r" (CharAt var15 329)))
(assert (= "`" (CharAt var7 516)))
(assert (= "E" (CharAt var57 442)))
(assert (= "h" (CharAt var7 928)))
(assert (= "Q" (CharAt var12 463)))
(assert (= "&" (CharAt var2 565)))
(assert (= "^" (CharAt var53 738)))
(assert (= "l" (CharAt var43 961)))
(assert (= "}" (CharAt var55 840)))
(assert (= "4" (CharAt var0 612)))
(assert (= "B" (CharAt var48 737)))
(assert (= "*" (CharAt var28 15)))
(assert (= "<" (CharAt var11 206)))
(assert (= "X" (CharAt var19 268)))
(assert (= "\\" (CharAt var54 875)))
(assert (= ";" (CharAt var9 304)))
(assert (= "@" (CharAt var14 791)))
(assert (= "R" (CharAt var16 61)))
(assert (= "9" (CharAt var55 91)))
(assert (= "W" (CharAt var50 241)))
(assert (= "#" (CharAt var23 297)))
(assert (= "t" (CharAt var3 144)))
(assert (= "'" (CharAt var14 250)))
(assert (= "L" (CharAt var59 688)))
(assert (= "~" (CharAt var40 259)))
(assert (= ">" (CharAt var45 123)))
(assert (= "v" (CharAt var19 417)))
(assert (= "V" (CharAt var37 946)))
(assert (= "Z" (CharAt var11 459)))
(assert (= "+" (CharAt var8 928)))
(assert (= "." (CharAt var28 966)))
(assert (= "$" (CharAt var33 471)))
(assert (= "{" (CharAt var20 871)))
(assert (= "Z" (CharAt var2 924)))
(assert (= "J" (CharAt var3 140)))
(assert (= "b" (CharAt var12 66)))
(assert (= "u" (CharAt var18 571)))
(assert (= "9" (CharAt var42 336)))
(assert (= "H" (CharAt var1 48)))
(assert (= "[" (CharAt var50 506)))
(assert (= ")" (CharAt var13 214)))
(assert (= "A" (CharAt var23 637)))
(assert (= "@" (CharAt var16 713)))
(assert (= "T" (CharAt var14 421)))
(assert (= "." (CharAt var33 59)))
(assert (= "%" (CharAt var35 818)))
(assert (= "c" (CharAt var36 871)))
(assert (= "m" (CharAt var49 314)))
(assert (= "u" (CharAt var44 264)))
(assert (= "#" (CharAt var17 792)))
(assert (= "Z" (CharAt var52 85)))
(assert (= "@" (CharAt var20 14)))
(assert (= "5" (CharAt var27 61)))
(assert (= "1" (CharAt var51 624)))
(assert (= ">" (CharAt var26 877)))
(assert (= "R" (CharAt var3 592)))
(assert (= "3" (CharAt var12 278)))
(assert (= "V" (CharAt var47 22)))
(assert (= "-" (CharAt var15 464)))
(assert (= "8" (CharAt var32 646)))
(assert (= "?" (CharAt var26 171)))
(assert (= "Q" (CharAt var2 531)))
(assert (= "!" (CharAt var60 873)))
(assert (= "n" (CharAt var51 981)))
(assert (= "J" (CharAt var35 31)))
(assert (= "u" (CharAt var2 191)))
(assert (= "D" (CharAt var16 616)))
(assert (= "|" (CharAt var14 648)))
(assert (= "~" (CharAt var20 226)))
(assert (= "V" (CharAt var2 754)))
(assert (= "P" (CharAt var53 548)))
(assert (= "|" (CharAt var12 0)))
(assert (= "," (CharAt var2 242)))
(assert (= "+" (CharAt var53 442)))
(assert (= "l" (CharAt var11 484)))
(assert (= "K" (CharAt var24 777)))
(assert (= ":" (CharAt var10 413)))
(assert (= "U" (CharAt var43 955)))
(assert (= "x" (CharAt var33 482)))
(assert (= "[" (CharAt var32 753)))
(assert (= "w" (CharAt var44 666)))
(assert (= "A" (CharAt var3 311)))
(assert (= "0" (CharAt var6 882)))
(assert (= "(" (CharAt var7 365)))
(assert (= "G" (CharAt var15 280)))
(assert (= "T" (CharAt var54 852)))
(assert (= "4" (CharAt var19 352)))
(assert (= "." (CharAt var34 215)))
(assert (= "x" (CharAt var16 39)))
(assert (= "p" (CharAt var56 919)))
(assert (= "{" (CharAt var46 807)))
(assert (= "d" (CharAt var27 479)))
(assert (= "_" (CharAt var13 90)))
(assert (= "R" (CharAt var9 350)))
(assert (= "3" (CharAt var39 153)))
(assert (= "R" (CharAt var6 443)))
(assert (= "T" (CharAt var36 312)))
(assert (= "&" (CharAt var59 813)))
(assert (= "W" (CharAt var22 362)))
(assert (= "p" (CharAt var20 983)))
(assert (= "b" (CharAt var22 355)))
(assert (= "S" (CharAt var54 468)))
(assert (= "p" (CharAt var41 625)))
(assert (= "F" (CharAt var53 671)))
(assert (= "C" (CharAt var26 556)))
(assert (= "C" (CharAt var48 161)))
(assert (= ")" (CharAt var45 257)))
(assert (= "\"" (CharAt var4 205)))
(assert (= "T" (CharAt var24 94)))
(assert (= "f" (CharAt var13 482)))
(assert (= "P" (CharAt var42 130)))
(assert (= "3" (CharAt var27 772)))
(assert (= "W" (CharAt var2 297)))
(assert (= "+" (CharAt var3 996)))
(assert (= "z" (CharAt var34 569)))
(assert (= "+" (CharAt var48 507)))
(assert (= "]" (CharAt var0 739)))
(assert (= "v" (CharAt var45 457)))
(assert (= "}" (CharAt var22 795)))
(assert (= "[" (CharAt var17 877)))
(assert (= "N" (CharAt var5 826)))
(assert (= "\"" (CharAt var17 984)))
(assert (= "{" (CharAt var7 617)))
(assert (= "B" (CharAt var47 125)))
(assert (= ";" (CharAt var30 480)))
(assert (= "-" (CharAt var6 722)))
(assert (= "\\" (CharAt var27 662)))
(assert (= "0" (CharAt var25 725)))
(assert (= "D" (CharAt var32 153)))
(assert (= "j" (CharAt var14 653)))
(assert (= "K" (CharAt var23 427)))
(assert (= "-" (CharAt var41 762)))
(assert (= "~" (CharAt var44 244)))
(assert (= "z" (CharAt var54 745)))
(assert (= ":" (CharAt var45 200)))
(assert (= "[" (CharAt var0 835)))
(assert (= "n" (CharAt var48 517)))
(assert (= "s" (CharAt var28 324)))
(assert (= "L" (CharAt var32 118)))
(assert (= "o" (CharAt var58 122)))
(assert (= "8" (CharAt var43 684)))
(assert (= "*" (CharAt var9 15)))
(assert (= "N" (CharAt var9 181)))
(assert (= "c" (CharAt var39 100)))
(assert (= "*" (CharAt var49 910)))
(assert (= "u" (CharAt var24 338)))
(assert (= "R" (CharAt var55 401)))
(assert (= "6" (CharAt var10 311)))
(assert (= "I" (CharAt var24 271)))
(assert (= "7" (CharAt var7 423)))
(assert (= "X" (CharAt var58 383)))
(assert (= "," (CharAt var21 95)))
(assert (= "W" (CharAt var48 811)))
(assert (= "o" (CharAt var14 615)))
(assert (= "2" (CharAt var26 457)))
(assert (= "d" (CharAt var24 655)))
(assert (= "M" (CharAt var11 171)))
(assert (= "D" (CharAt var55 776)))
(assert (= "?" (CharAt var48 868)))
(assert (= "w" (CharAt var52 523)))
(assert (= "f" (CharAt var56 393)))
(assert (= ")" (CharAt var41 584)))
(assert (= "$" (CharAt var29 695)))
(assert (= "B" (CharAt var3 941)))
(assert (= "b" (CharAt var50 769)))
(assert (= "o" (CharAt var25 450)))
(assert (= "f" (CharAt var3 566)))
(assert (= "2" (CharAt var53 832)))
(assert (= "s" (CharAt var39 647)))
(assert (= "8" (CharAt var2 302)))
(assert (= "P" (CharAt var13 670)))
(assert (= "j" (CharAt var31 34)))
(assert (= "p" (CharAt var52 358)))
(assert (= "+" (CharAt var26 447)))
(assert (= "u" (CharAt var40 720)))
(assert (= "S" (CharAt var28 729)))
(assert (= "<" (CharAt var8 779)))
(assert (= "#" (CharAt var20 880)))
(assert (= "'" (CharAt var35 946)))
(assert (= "," (CharAt var10 606)))
(assert (= "I" (CharAt var35 596)))
(assert (= "K" (CharAt var55 77)))
(assert (= "Y" (CharAt var24 583)))
(assert (= "y" (CharAt var55 717)))
(assert (= "T" (CharAt var33 966)))
(assert (= "b" (CharAt var52 493)))
(assert (= "." (CharAt var27 791)))
(assert (= "M" (CharAt var34 411)))
(assert (= "6" (CharAt var12 73)))
(assert (= "\"" (CharAt var3 101)))
(assert (= "x" (CharAt var6 693)))
(assert (= "|" (CharAt var6 102)))
(assert (= "[" (CharAt var38 170)))
(assert (= "p" (CharAt var44 913)))
(assert (= "$" (CharAt var58 180)))
(assert (= "\"" (CharAt var9 376)))
(assert (= "{" (CharAt var3 711)))
(assert (= "." (CharAt var18 262)))
(assert (= "^" (CharAt var9 348)))
(assert (= "L" (CharAt var8 245)))
(assert (= "v" (CharAt var20 628)))
(assert (= "2" (CharAt var57 364)))
(assert (= "5" (CharAt var26 302)))
(assert (= "M" (CharAt var54 839)))
(assert (= "M" (CharAt var33 349)))
(assert (= "t" (CharAt var41 517)))
(assert (= "/" (CharAt var50 526)))
(assert (= "h" (CharAt var19 276)))
(assert (= "Q" (CharAt var33 622)))
(assert (= "F" (CharAt var47 765)))
(assert (= "8" (CharAt var4 242)))
(assert (= "L" (CharAt var43 166)))
(assert (= "1" (CharAt var30 145)))
(assert (= "u" (CharAt var57 924)))
(assert (= "#" (CharAt var48 985)))
(assert (= "r" (CharAt var26 6)))
(assert (= "|" (CharAt var35 390)))
(assert (= "P" (CharAt var36 161)))
(assert (= "H" (CharAt var15 293)))
(assert (= "'" (CharAt var41 188)))
(assert (= "(" (CharAt var18 234)))
(assert (= "5" (CharAt var22 662)))
(assert (= "(" (CharAt var8 205)))
(assert (= "-" (CharAt var3 696)))
(assert (= "." (CharAt var2 930)))
(assert (= "i" (CharAt var30 326)))
(assert (= "E" (CharAt var36 141)))
(assert (= "'" (CharAt var1 975)))
(assert (= "}" (CharAt var36 125)))
(assert (= "Z" (CharAt var7 299)))
(assert (= "]" (CharAt var8 753)))
(assert (= "A" (CharAt var14 145)))
(assert (= "]" (CharAt var19 781)))
(assert (= "Z" (CharAt var14 515)))
(assert (= "~" (CharAt var60 988)))
(assert (= "I" (CharAt var58 136)))
(assert (= "t" (CharAt var36 907)))
(assert (= "H" (CharAt var1 494)))
(assert (= "5" (CharAt var54 909)))
(assert (= "(" (CharAt var30 524)))
(assert (= "6" (CharAt var25 801)))
(assert (= "z" (CharAt var57 791)))
(assert (= "`" (CharAt var55 979)))
(assert (= ";" (CharAt var2 854)))
(assert (= "s" (CharAt var35 995)))
(assert (= "K" (CharAt var29 629)))
(assert (= "}" (CharAt var10 56)))
(assert (= "R" (CharAt var47 767)))
(assert (= "[" (CharAt var35 568)))
(assert (= "w" (CharAt var1 602)))
(assert (= "T" (CharAt var26 192)))
(assert (= "\\" (CharAt var45 571)))
(assert (= "K" (CharAt var4 51)))
(assert (= ":" (CharAt var36 486)))
(assert (= "Y" (CharAt var32 132)))
(assert (= "|" (CharAt var50 702)))
(assert (= "8" (CharAt var33 987)))
(assert (= "T" (CharAt var48 735)))
(assert (= "4" (CharAt var55 96)))
(assert (= "^" (CharAt var13 230)))
(assert (= "R" (CharAt var51 967)))
(assert (= "C" (CharAt var2 329)))
(assert (= "7" (CharAt var50 117)))
(assert (= "H" (CharAt var0 364)))
(assert (= "}" (CharAt var12 390)))
(assert (= "L" (CharAt var13 516)))
(assert (= "\"" (CharAt var39 610)))
(assert (= "p" (CharAt var11 258)))
(assert (= "g" (CharAt var46 481)))
(assert (= "~" (CharAt var14 549)))
(assert (= "{" (CharAt var49 706)))
(assert (= "d" (CharAt var54 257)))
(assert (= "(" (CharAt var34 596)))
(assert (= "w" (CharAt var58 776)))
(assert (= "d" (CharAt var3 450)))
(assert (= "(" (CharAt var39 163)))
(assert (= "7" (CharAt var3 982)))
(assert (= "6" (CharAt var35 130)))
(assert (= ">" (CharAt var17 766)))
(assert (= "]" (CharAt var50 78)))
(assert (= "o" (CharAt var0 158)))
(assert (= "v" (CharAt var6 159)))
(assert (= "O" (CharAt var23 839)))
(assert (= "J" (CharAt var40 288)))
(assert (= "\\" (CharAt var56 228)))
(assert (= "*" (CharAt var40 541)))
(assert (= "E" (CharAt var55 933)))
(assert (= "s" (CharAt var13 123)))
(assert (= "d" (CharAt var17 655)))
(assert (= "P" (CharAt var1 188)))
(assert (= "S" (CharAt var42 898)))
(assert (= "]" (CharAt var27 394)))
(assert (= "q" (CharAt var1 118)))
(assert (= "T" (CharAt var33 705)))
(assert (= "<" (CharAt var36 431)))
(assert (= "r" (CharAt var16 18)))
(assert (= "/" (CharAt var14 701)))
(assert (= "`" (CharAt var1 226)))
(assert (= "m" (CharAt var1 558)))
(assert (= "C" (CharAt var8 499)))
(assert (= "m" (CharAt var48 958)))
(assert (= "+" (CharAt var48 41)))
(assert (= "x" (CharAt var10 797)))
(assert (= "O" (CharAt var0 426)))
(assert (= "8" (CharAt var48 30)))
(assert (= "D" (CharAt var1 752)))
(assert (= "B" (CharAt var53 741)))
(assert (= "&" (CharAt var47 28)))
(assert (= "g" (CharAt var16 148)))
(assert (= ")" (CharAt var17 218)))
(assert (= "s" (CharAt var38 604)))
(assert (= ")" (CharAt var28 785)))
(assert (= "5" (CharAt var54 472)))
(assert (= "2" (CharAt var43 607)))
(assert (= "F" (CharAt var37 265)))
(assert (= "y" (CharAt var54 538)))
(assert (= "3" (CharAt var3 992)))
(assert (= "I" (CharAt var51 263)))
(assert (= "U" (CharAt var16 919)))
(assert (= "m" (CharAt var17 274)))
(assert (= "W" (CharAt var26 511)))
(assert (= "\"" (CharAt var12 538)))
(assert (= "u" (CharAt var8 299)))
(assert (= "$" (CharAt var47 296)))
(assert (= "x" (CharAt var53 13)))
(assert (= "c" (CharAt var27 191)))
(assert (= "Q" (CharAt var33 867)))
(assert (= "t" (CharAt var35 595)))
(assert (= "|" (CharAt var4 374)))
(assert (= "R" (CharAt var20 102)))
(assert (= "m" (CharAt var19 814)))
(assert (= "@" (CharAt var19 987)))
(assert (= "6" (CharAt var23 238)))
(assert (= "]" (CharAt var54 401)))
(assert (= "7" (CharAt var43 885)))
(assert (= "4" (CharAt var33 806)))
(assert (= "5" (CharAt var42 797)))
(assert (= "$" (CharAt var55 793)))
(assert (= "7" (CharAt var0 103)))
(assert (= "7" (CharAt var38 714)))
(assert (= "7" (CharAt var36 251)))
(assert (= "G" (CharAt var17 551)))
(assert (= "}" (CharAt var2 880)))
(assert (= "\\" (CharAt var10 43)))
(assert (= "j" (CharAt var22 509)))
(assert (= "-" (CharAt var45 489)))
(assert (= "l" (CharAt var60 994)))
(assert (= "@" (CharAt var2 875)))
(assert (= "'" (CharAt var32 402)))
(assert (= "\"" (CharAt var16 488)))
(assert (= "v" (CharAt var57 475)))
(assert (= "g" (CharAt var32 357)))
(assert (= "4" (CharAt var18 237)))
(assert (= "g" (CharAt var37 723)))
(assert (= "g" (CharAt var32 25)))
(assert (= "f" (CharAt var39 685)))
(assert (= "L" (CharAt var35 935)))
(assert (= "s" (CharAt var42 13)))
(assert (= "B" (CharAt var3 449)))
(assert (= "[" (CharAt var48 353)))
(assert (= "Q" (CharAt var58 38)))
(assert (= "0" (CharAt var50 306)))
(assert (= ">" (CharAt var46 384)))
(assert (= "!" (CharAt var28 5)))
(assert (= "H" (CharAt var40 329)))
(assert (= "E" (CharAt var25 198)))
(assert (= "'" (CharAt var12 775)))
(assert (= "L" (CharAt var45 115)))
(assert (= "}" (CharAt var24 177)))
(assert (= "`" (CharAt var29 762)))
(assert (= "e" (CharAt var18 932)))
(assert (= "C" (CharAt var28 987)))
(assert (= "6" (CharAt var1 845)))
(assert (= "n" (CharAt var57 397)))
(assert (= "n" (CharAt var32 895)))
(assert (= "x" (CharAt var41 928)))
(assert (= "~" (CharAt var32 722)))
(assert (= "N" (CharAt var6 355)))
(assert (= "r" (CharAt var2 280)))
(assert (= "f" (CharAt var39 115)))
(assert (= "a" (CharAt var33 107)))
(assert (= "/" (CharAt var8 126)))
(assert (= "b" (CharAt var10 876)))
(assert (= "]" (CharAt var43 489)))
(assert (= "*" (CharAt var59 918)))
(assert (= "Q" (CharAt var17 225)))
(assert (= "I" (CharAt var49 265)))
(assert (= "\\" (CharAt var27 976)))
(assert (= "W" (CharAt var22 182)))
(assert (= "@" (CharAt var30 629)))
(assert (= "7" (CharAt var55 661)))
(assert (= "`" (CharAt var31 802)))
(assert (= "L" (CharAt var1 618)))
(assert (= "6" (CharAt var47 753)))
(assert (= "U" (CharAt var43 827)))
(assert (= "N" (CharAt var54 731)))
(assert (= "4" (CharAt var27 487)))
(assert (= "-" (CharAt var1 451)))
(assert (= "C" (CharAt var14 836)))
(assert (= "}" (CharAt var14 919)))
(assert (= "u" (CharAt var15 737)))
(assert (= "%" (CharAt var27 55)))
(assert (= "q" (CharAt var27 928)))
(assert (= "W" (CharAt var53 292)))
(assert (= "@" (CharAt var4 643)))
(assert (= "b" (CharAt var28 702)))
(assert (= "C" (CharAt var25 533)))
(assert (= "<" (CharAt var21 490)))
(assert (= "i" (CharAt var40 678)))
(assert (= "D" (CharAt var41 320)))
(assert (= "A" (CharAt var50 565)))
(assert (= "T" (CharAt var48 605)))
(assert (= "B" (CharAt var38 317)))
(assert (= "u" (CharAt var24 345)))
(assert (= "u" (CharAt var8 516)))
(assert (= "L" (CharAt var49 873)))
(assert (= "p" (CharAt var22 38)))
(assert (= "e" (CharAt var42 817)))
(assert (= "t" (CharAt var4 24)))
(assert (= "|" (CharAt var32 876)))
(assert (= "2" (CharAt var35 399)))
(assert (= "r" (CharAt var4 586)))
(assert (= "'" (CharAt var52 553)))
(assert (= "0" (CharAt var55 518)))
(assert (= "3" (CharAt var9 151)))
(assert (= "y" (CharAt var8 124)))
(assert (= "P" (CharAt var0 894)))
(assert (= "|" (CharAt var33 597)))
(assert (= "#" (CharAt var18 125)))
(assert (= "L" (CharAt var4 909)))
(assert (= "y" (CharAt var59 796)))
(assert (= "(" (CharAt var54 363)))
(assert (= "&" (CharAt var50 724)))
(assert (= "9" (CharAt var7 752)))
(assert (= "2" (CharAt var52 270)))
(assert (= "]" (CharAt var20 852)))
(assert (= "S" (CharAt var47 304)))
(assert (= "J" (CharAt var55 686)))
(assert (= "S" (CharAt var37 178)))
(assert (= "\"" (CharAt var2 451)))
(assert (= "X" (CharAt var48 685)))
(assert (= "{" (CharAt var29 47)))
(assert (= "D" (CharAt var22 617)))
(assert (= "O" (CharAt var55 772)))
(assert (= "'" (CharAt var23 51)))
(assert (= "q" (CharAt var12 455)))
(assert (= "I" (CharAt var14 694)))
(assert (= "&" (CharAt var59 722)))
(assert (= "," (CharAt var6 414)))
(assert (= "h" (CharAt var18 272)))
(assert (= "s" (CharAt var2 431)))
(assert (= "J" (CharAt var44 271)))
(assert (= "u" (CharAt var3 530)))
(assert (= "g" (CharAt var17 670)))
(assert (= "l" (CharAt var53 54)))
(assert (= "I" (CharAt var60 24)))
(assert (= "h" (CharAt var22 557)))
(assert (= "}" (CharAt var9 391)))
(assert (= "|" (CharAt var6 387)))
(assert (= "O" (CharAt var2 968)))
(assert (= "X" (CharAt var36 352)))
(assert (= "#" (CharAt var8 241)))
(assert (= "0" (CharAt var27 440)))
(assert (= "V" (CharAt var30 614)))
(assert (= "'" (CharAt var26 901)))
(assert (= "!" (CharAt var5 907)))
(assert (= "+" (CharAt var15 270)))
(assert (= "t" (CharAt var60 331)))
(assert (= "B" (CharAt var50 475)))
(assert (= "`" (CharAt var46 516)))
(assert (= "l" (CharAt var12 43)))
(assert (= "@" (CharAt var51 798)))
(assert (= "+" (CharAt var16 557)))
(assert (= "A" (CharAt var60 388)))
(assert (= ")" (CharAt var27 48)))
(assert (= "H" (CharAt var24 479)))
(assert (= "=" (CharAt var3 850)))
(assert (= "!" (CharAt var28 46)))
(assert (= "_" (CharAt var34 58)))
(assert (= "X" (CharAt var16 508)))
(assert (= "V" (CharAt var45 346)))
(assert (= "#" (CharAt var7 238)))
(assert (= "1" (CharAt var56 11)))
(assert (= "a" (CharAt var16 365)))
(assert (= "K" (CharAt var55 287)))
(assert (= ":" (CharAt var38 308)))
(assert (= "[" (CharAt var35 919)))
(assert (= "~" (CharAt var14 70)))
(assert (= "p" (CharAt var55 343)))
(assert (= "e" (CharAt var15 905)))
(assert (= "w" (CharAt var51 628)))
(assert (= "@" (CharAt var42 330)))
(assert (= "H" (CharAt var45 578)))
(assert (= "i" (CharAt var21 811)))
(assert (= "I" (CharAt var21 975)))
(assert (= "p" (CharAt var43 942)))
(assert (= "z" (CharAt var22 593)))
(assert (= "7" (CharAt var2 856)))
(assert (= "(" (CharAt var10 446)))
(assert (= "p" (CharAt var60 640)))
(assert (= "z" (CharAt var54 785)))
(assert (= "m" (CharAt var0 160)))
(assert (= "J" (CharAt var21 316)))
(assert (= ":" (CharAt var51 761)))
(assert (= "\\" (CharAt var47 895)))
(assert (= "s" (CharAt var11 59)))
(assert (= "." (CharAt var45 452)))
(assert (= "|" (CharAt var58 300)))
(assert (= "J" (CharAt var11 106)))
(assert (= "h" (CharAt var22 293)))
(assert (= "G" (CharAt var10 249)))
(assert (= "n" (CharAt var0 697)))
(assert (= "R" (CharAt var46 764)))
(assert (= "d" (CharAt var49 127)))
(assert (= "Y" (CharAt var35 436)))
(assert (= "+" (CharAt var19 752)))
(assert (= "B" (CharAt var2 467)))
(assert (= "." (CharAt var48 72)))
(assert (= "R" (CharAt var0 920)))
(assert (= "l" (CharAt var30 619)))
(assert (= "N" (CharAt var46 623)))
(assert (= "e" (CharAt var50 926)))
(assert (= "t" (CharAt var44 919)))
(assert (= "|" (CharAt var46 570)))
(assert (= "g" (CharAt var5 633)))
(assert (= "j" (CharAt var35 587)))
(assert (= ">" (CharAt var15 773)))
(assert (= "'" (CharAt var58 921)))
(assert (= "I" (CharAt var39 19)))
(assert (= "z" (CharAt var60 478)))
(assert (= ":" (CharAt var58 556)))
(assert (= "V" (CharAt var43 424)))
(assert (= "%" (CharAt var40 571)))
(assert (= "#" (CharAt var9 634)))
(assert (= "!" (CharAt var42 309)))
(assert (= "<" (CharAt var53 672)))
(assert (= "x" (CharAt var27 316)))
(assert (= "i" (CharAt var5 995)))
(assert (= "u" (CharAt var22 58)))
(assert (= "T" (CharAt var32 20)))
(assert (= "C" (CharAt var37 354)))
(assert (= "u" (CharAt var41 544)))
(assert (= "}" (CharAt var19 812)))
(assert (= "," (CharAt var41 469)))
(assert (= "I" (CharAt var54 957)))
(assert (= "p" (CharAt var50 293)))
(assert (= "J" (CharAt var54 347)))
(assert (= "Z" (CharAt var46 605)))
(assert (= "(" (CharAt var6 309)))
(assert (= "L" (CharAt var50 462)))
(assert (= "{" (CharAt var3 561)))
(assert (= "V" (CharAt var33 681)))
(assert (= "r" (CharAt var17 465)))
(assert (= "x" (CharAt var30 342)))
(assert (= "\"" (CharAt var36 664)))
(assert (= "c" (CharAt var19 750)))
(assert (= "_" (CharAt var0 300)))
(assert (= "5" (CharAt var13 81)))
(assert (= "G" (CharAt var59 130)))
(assert (= "|" (CharAt var38 212)))
(assert (= "&" (CharAt var34 948)))
(assert (= "5" (CharAt var55 4)))
(assert (= "j" (CharAt var48 219)))
(assert (= "i" (CharAt var31 209)))
(assert (= "I" (CharAt var4 682)))
(assert (= "g" (CharAt var11 729)))
(assert (= ">" (CharAt var18 446)))
(assert (= "E" (CharAt var30 146)))
(assert (= "{" (CharAt var46 388)))
(assert (= "3" (CharAt var19 65)))
(assert (= "?" (CharAt var28 950)))
(assert (= "h" (CharAt var13 171)))
(assert (= "n" (CharAt var19 557)))
(assert (= "f" (CharAt var56 28)))
(assert (= "U" (CharAt var18 523)))
(assert (= "P" (CharAt var18 704)))
(assert (= "#" (CharAt var54 754)))
(assert (= "k" (CharAt var8 60)))
(assert (= "h" (CharAt var57 897)))
(assert (= "n" (CharAt var8 113)))
(assert (= "$" (CharAt var26 555)))
(assert (= "r" (CharAt var56 203)))
(assert (= "d" (CharAt var34 407)))
(assert (= "'" (CharAt var42 504)))
(assert (= "M" (CharAt var60 27)))
(assert (= "6" (CharAt var45 574)))
(assert (= "J" (CharAt var40 747)))
(assert (= "," (CharAt var28 83)))
(assert (= "B" (CharAt var14 289)))
(assert (= "4" (CharAt var7 665)))
(assert (= "f" (CharAt var54 255)))
(assert (= "C" (CharAt var45 226)))
(assert (= "K" (CharAt var43 457)))
(assert (= "T" (CharAt var43 338)))
(assert (= "E" (CharAt var21 91)))
(assert (= ":" (CharAt var0 443)))
(assert (= "h" (CharAt var20 583)))
(assert (= "-" (CharAt var7 838)))
(assert (= "8" (CharAt var1 733)))
(assert (= "t" (CharAt var9 148)))
(assert (= "f" (CharAt var25 574)))
(assert (= "'" (CharAt var1 172)))
(assert (= "Y" (CharAt var29 734)))
(assert (= "d" (CharAt var14 899)))
(assert (= "g" (CharAt var12 60)))
(assert (= "5" (CharAt var26 668)))
(assert (= "-" (CharAt var0 968)))
(assert (= "'" (CharAt var42 791)))
(assert (= ":" (CharAt var33 746)))
(assert (= "0" (CharAt var53 451)))
(assert (= "t" (CharAt var4 13)))
(assert (= ">" (CharAt var38 800)))
(assert (= "t" (CharAt var33 217)))
(assert (= "D" (CharAt var6 101)))
(assert (= "*" (CharAt var50 150)))
(assert (= "r" (CharAt var16 568)))
(assert (= "b" (CharAt var4 757)))
(assert (= "w" (CharAt var34 392)))
(assert (= "y" (CharAt var32 715)))
(assert (= "0" (CharAt var16 966)))
(assert (= "}" (CharAt var39 937)))
(assert (= "\\" (CharAt var50 420)))
(assert (= "2" (CharAt var52 672)))
(assert (= "W" (CharAt var23 855)))
(assert (= "g" (CharAt var6 576)))
(assert (= "I" (CharAt var49 210)))
(assert (= "l" (CharAt var53 332)))
(assert (= "#" (CharAt var10 100)))
(assert (= "f" (CharAt var19 941)))
(assert (= "U" (CharAt var45 67)))
(assert (= "H" (CharAt var18 554)))
(assert (= "}" (CharAt var2 272)))
(assert (= "|" (CharAt var46 355)))
(assert (= "," (CharAt var51 993)))
(assert (= "4" (CharAt var28 130)))
(assert (= "t" (CharAt var15 817)))
(assert (= "u" (CharAt var58 747)))
(assert (= "i" (CharAt var26 86)))
(assert (= "3" (CharAt var13 926)))
(assert (= "7" (CharAt var60 697)))
(assert (= "?" (CharAt var43 367)))
(assert (= "]" (CharAt var36 951)))
(assert (= "{" (CharAt var14 843)))
(assert (= "}" (CharAt var40 270)))
(assert (= "J" (CharAt var20 11)))
(assert (= "v" (CharAt var46 262)))
(assert (= "@" (CharAt var50 356)))
(assert (= "A" (CharAt var40 111)))
(assert (= "]" (CharAt var24 272)))
(assert (= "," (CharAt var1 953)))
(assert (= "H" (CharAt var58 207)))
(assert (= "&" (CharAt var33 751)))
(assert (= "s" (CharAt var39 660)))
(assert (= "0" (CharAt var39 118)))
(assert (= "j" (CharAt var24 533)))
(assert (= "`" (CharAt var8 201)))
(assert (= "2" (CharAt var38 839)))
(assert (= "_" (CharAt var20 820)))
(assert (= "e" (CharAt var10 584)))
(assert (= "C" (CharAt var43 452)))
(assert (= "D" (CharAt var19 426)))
(assert (= "H" (CharAt var52 405)))
(assert (= "!" (CharAt var2 464)))
(assert (= "D" (CharAt var29 282)))
(assert (= "T" (CharAt var33 174)))
(assert (= "2" (CharAt var22 947)))
(assert (= "E" (CharAt var22 929)))
(assert (= "\"" (CharAt var16 215)))
(assert (= "?" (CharAt var36 39)))
(assert (= "b" (CharAt var39 912)))
(assert (= "~" (CharAt var21 151)))
(assert (= "L" (CharAt var30 582)))
(assert (= "v" (CharAt var53 482)))
(assert (= "D" (CharAt var47 14)))
(assert (= "." (CharAt var5 920)))
(assert (= "s" (CharAt var60 17)))
(assert (= "T" (CharAt var58 851)))
(assert (= "u" (CharAt var42 754)))
(assert (= "B" (CharAt var42 843)))
(assert (= "y" (CharAt var30 205)))
(assert (= "?" (CharAt var7 993)))
(assert (= "3" (CharAt var59 798)))
(assert (= "=" (CharAt var25 245)))
(assert (= "g" (CharAt var30 368)))
(assert (= "f" (CharAt var34 636)))
(assert (= "W" (CharAt var27 820)))
(assert (= "," (CharAt var39 324)))
(assert (= ">" (CharAt var54 570)))
(assert (= "8" (CharAt var36 439)))
(assert (= "J" (CharAt var53 335)))
(assert (= "," (CharAt var51 265)))
(assert (= "&" (CharAt var9 329)))
(assert (= "2" (CharAt var27 726)))
(check-sat)